; arq :: corpus-study/repo_src/arq/arq/cli.py :: EVENT 'watch_reload::stop_event' :: naive encoding (verdict: unsat)
; Generated by snf-pipeline (encoder.py) -- run with any
; SMT-LIB2-compliant solver, e.g. `z3 arq__corpus-study_repo_src_arq_arq_cli.py__watch_reload__stop_event__naive.smt2`
; benchmark generated from python API
(set-info :status unknown)
(assert
 false)
(check-sat)
